(set-logic QF_S)
(declare-fun var_0xINPUT_112412 () String)
(assert (and (= (len var_0xINPUT_112412) 0) (= (len var_0xINPUT_112412) 0) (not (= var_0xINPUT_112412 "6JX7G3VKFq"))))
(check-sat var_0xINPUT_112412)